50
    72    52    20    41    36     8     8    72    22    35    96    36    54    53    57    59    76    23    26    62    43    47     7    54    28    68    68    35    21    67    42    95    24    69    28    16    58    38    92    70    58    79    64    19    74    36    40    18    74    97
     2     2     5     3     3     7     5     2     5     3     3     7     7     4     4     4     6     7     1     8     2     1     8    10     9     6    10     8     7     6     8     7     2     5     7     9     1     1     9     4     8     4     6    10     2     4    10    10     6     7
  2722  1252   921  2089  1674  2321  2847  2741  1156  1929  1352  2036  2358  2673  2537  2238  1699  2885  3052  1914  2469  2336  2347  1033   907  1862  1533  2414  2713  1757  1022  2214  1811  1399  1821  1110  1741  2520   735  2097  1728  1521  1407  2193  1021  2483  2210  2403  2012  2178
